(set-logic QF_S)
(declare-fun var0 () String)
(assert (RegexIn var0 (RegexConcat (RegexStar (RegexPlus (Str2Reg "00"))) (RegexConcat (RegexUnion (RegexPlus (Str2Reg "1")) (RegexPlus (Str2Reg "222"))) (RegexConcat (RegexPlus (RegexPlus (Str2Reg "3"))) (RegexConcat (RegexPlus (RegexPlus (Str2Reg "4"))) (RegexConcat (RegexStar (RegexPlus (Str2Reg "555"))) (RegexConcat (RegexUnion (RegexStar (Str2Reg "666")) (RegexStar (Str2Reg "777"))) (RegexConcat (RegexUnion (RegexUnion (Str2Reg "88") (Str2Reg "99")) (RegexUnion (Str2Reg "aa") (Str2Reg "bbb"))) (RegexConcat (RegexPlus (RegexPlus (Str2Reg "cc"))) (RegexConcat (RegexUnion (RegexUnion (Str2Reg "d") (Str2Reg "e")) (RegexUnion (Str2Reg "fff") (Str2Reg "gg"))) (RegexConcat (RegexPlus (RegexStar (Str2Reg "hhh"))) (RegexConcat (RegexUnion (RegexStar (Str2Reg "ii")) (RegexStar (Str2Reg "j"))) (RegexConcat (RegexStar (RegexUnion (Str2Reg "k") (Str2Reg "l"))) (RegexConcat (RegexUnion (RegexStar (Str2Reg "mmm")) (RegexStar (Str2Reg "nnn"))) (RegexConcat (RegexPlus (RegexUnion (Str2Reg "oo") (Str2Reg "pp"))) (RegexConcat (RegexStar (RegexStar (Str2Reg "qqq"))) (RegexConcat (RegexStar (RegexPlus (Str2Reg "r"))) (RegexConcat (RegexStar (RegexPlus (Str2Reg "ss"))) (RegexConcat (RegexStar (RegexPlus (Str2Reg "t"))) (RegexConcat (RegexStar (RegexStar (Str2Reg "uu"))) (RegexConcat (RegexPlus (RegexPlus (Str2Reg "vvv"))) (RegexConcat (RegexUnion (RegexStar (Str2Reg "ww")) (RegexStar (Str2Reg "xx"))) (RegexConcat (RegexPlus (RegexUnion (Str2Reg "yy") (Str2Reg "zz"))) (RegexConcat (RegexUnion (RegexStar (Str2Reg "AAA")) (RegexStar (Str2Reg "BB"))) (RegexConcat (RegexPlus (RegexPlus (Str2Reg "C"))) (RegexConcat (RegexPlus (RegexPlus (Str2Reg "DDD"))) (RegexConcat (RegexPlus (RegexUnion (Str2Reg "EE") (Str2Reg "F"))) (RegexConcat (RegexUnion (RegexStar (Str2Reg "GGG")) (RegexStar (Str2Reg "H"))) (RegexConcat (RegexPlus (RegexUnion (Str2Reg "II") (Str2Reg "J"))) (RegexConcat (RegexUnion (RegexUnion (Str2Reg "KKK") (Str2Reg "LL")) (RegexUnion (Str2Reg "M") (Str2Reg "NN"))) (RegexConcat (RegexPlus (RegexStar (Str2Reg "OO"))) (RegexConcat (RegexUnion (RegexStar (Str2Reg "P")) (RegexStar (Str2Reg "Q"))) (RegexConcat (RegexPlus (RegexPlus (Str2Reg "RRR"))) (RegexConcat (RegexStar (RegexUnion (Str2Reg "SSS") (Str2Reg "T"))) (RegexConcat (RegexStar (RegexUnion (Str2Reg "UU") (Str2Reg "V"))) (RegexConcat (RegexStar (RegexStar (Str2Reg "WWW"))) (RegexConcat (RegexPlus (RegexStar (Str2Reg "XX"))) (RegexConcat (RegexPlus (RegexUnion (Str2Reg "YY") (Str2Reg "ZZZ"))) (RegexConcat (RegexStar (RegexUnion (Str2Reg "!!!") (Str2Reg "\"\"\""))) (RegexConcat (RegexStar (RegexPlus (Str2Reg "###"))) (RegexConcat (RegexStar (RegexStar (Str2Reg "$$$"))) (RegexConcat (RegexStar (RegexPlus (Str2Reg "%%%"))) (RegexConcat (RegexUnion (RegexStar (Str2Reg "&")) (RegexStar (Str2Reg "''"))) (RegexConcat (RegexUnion (RegexStar (Str2Reg "(((")) (RegexStar (Str2Reg ")"))) (RegexConcat (RegexUnion (RegexPlus (Str2Reg "*")) (RegexPlus (Str2Reg "++"))) (RegexConcat (RegexStar (RegexUnion (Str2Reg ",,,") (Str2Reg "-"))) (RegexConcat (RegexUnion (RegexPlus (Str2Reg ".")) (RegexPlus (Str2Reg "/"))) (RegexConcat (RegexStar (RegexUnion (Str2Reg "::") (Str2Reg ";"))) (RegexConcat (RegexPlus (RegexUnion (Str2Reg "<") (Str2Reg "=="))) (RegexConcat (RegexStar (RegexUnion (Str2Reg ">") (Str2Reg "???"))) (RegexConcat (RegexPlus (RegexPlus (Str2Reg "@@@"))) (RegexConcat (RegexPlus (RegexStar (Str2Reg "[["))) (RegexConcat (RegexStar (RegexPlus (Str2Reg "\\\\\\"))) (RegexConcat (RegexStar (RegexStar (Str2Reg "]]"))) (RegexConcat (RegexPlus (RegexStar (Str2Reg "^^^"))) (RegexConcat (RegexUnion (RegexUnion (Str2Reg "_") (Str2Reg "`")) (RegexUnion (Str2Reg "{") (Str2Reg "|||"))) (RegexConcat (RegexStar (RegexUnion (Str2Reg "}}}") (Str2Reg "~"))) (RegexConcat (RegexStar (RegexPlus (Str2Reg "00"))) (RegexConcat (RegexStar (RegexStar (Str2Reg "11"))) (RegexConcat (RegexPlus (RegexUnion (Str2Reg "2") (Str2Reg "3"))) (RegexConcat (RegexPlus (RegexPlus (Str2Reg "4"))) (RegexConcat (RegexUnion (RegexStar (Str2Reg "5")) (RegexStar (Str2Reg "666"))) (RegexConcat (RegexStar (RegexStar (Str2Reg "7"))) (RegexConcat (RegexUnion (RegexStar (Str2Reg "888")) (RegexStar (Str2Reg "99"))) (RegexConcat (RegexStar (RegexPlus (Str2Reg "a"))) (RegexConcat (RegexStar (RegexUnion (Str2Reg "bbb") (Str2Reg "c"))) (RegexConcat (RegexUnion (RegexUnion (Str2Reg "dd") (Str2Reg "ee")) (RegexUnion (Str2Reg "f") (Str2Reg "gg"))) (RegexConcat (RegexUnion (RegexUnion (Str2Reg "hhh") (Str2Reg "iii")) (RegexUnion (Str2Reg "jjj") (Str2Reg "k"))) (RegexConcat (RegexStar (RegexUnion (Str2Reg "ll") (Str2Reg "m"))) (RegexConcat (RegexStar (RegexUnion (Str2Reg "nnn") (Str2Reg "oo"))) (RegexConcat (RegexUnion (RegexPlus (Str2Reg "p")) (RegexPlus (Str2Reg "q"))) (RegexConcat (RegexStar (RegexStar (Str2Reg "r"))) (RegexConcat (RegexPlus (RegexPlus (Str2Reg "s"))) (RegexConcat (RegexStar (RegexUnion (Str2Reg "tt") (Str2Reg "u"))) (RegexConcat (RegexUnion (RegexUnion (Str2Reg "v") (Str2Reg "www")) (RegexUnion (Str2Reg "x") (Str2Reg "yy"))) (RegexConcat (RegexPlus (RegexUnion (Str2Reg "z") (Str2Reg "A"))) (RegexConcat (RegexUnion (RegexStar (Str2Reg "B")) (RegexStar (Str2Reg "CCC"))) (RegexConcat (RegexUnion (RegexUnion (Str2Reg "D") (Str2Reg "EE")) (RegexUnion (Str2Reg "F") (Str2Reg "GGG"))) (RegexConcat (RegexStar (RegexStar (Str2Reg "H"))) (RegexConcat (RegexPlus (RegexPlus (Str2Reg "III"))) (RegexConcat (RegexUnion (RegexStar (Str2Reg "JJ")) (RegexStar (Str2Reg "K"))) (RegexConcat (RegexPlus (RegexStar (Str2Reg "L"))) (RegexConcat (RegexStar (RegexUnion (Str2Reg "MMM") (Str2Reg "NNN"))) (RegexConcat (RegexStar (RegexUnion (Str2Reg "O") (Str2Reg "PP"))) (RegexConcat (RegexStar (RegexPlus (Str2Reg "Q"))) (RegexConcat (RegexPlus (RegexUnion (Str2Reg "R") (Str2Reg "SS"))) (RegexConcat (RegexPlus (RegexStar (Str2Reg "TTT"))) (RegexConcat (RegexUnion (RegexUnion (Str2Reg "U") (Str2Reg "VV")) (RegexUnion (Str2Reg "WW") (Str2Reg "XXX"))) (RegexConcat (RegexStar (RegexUnion (Str2Reg "YY") (Str2Reg "ZZ"))) (RegexConcat (RegexPlus (RegexPlus (Str2Reg "!!!"))) (RegexConcat (RegexStar (RegexPlus (Str2Reg "\"\""))) (RegexConcat (RegexUnion (RegexStar (Str2Reg "###")) (RegexStar (Str2Reg "$"))) (RegexConcat (RegexStar (RegexStar (Str2Reg "%"))) (RegexConcat (RegexPlus (RegexPlus (Str2Reg "&&"))) (RegexConcat (RegexUnion (RegexPlus (Str2Reg "'''")) (RegexPlus (Str2Reg "(("))) (RegexConcat (RegexUnion (RegexStar (Str2Reg ")")) (RegexStar (Str2Reg "***"))) (RegexConcat (RegexUnion (RegexUnion (Str2Reg "++") (Str2Reg ",,,")) (RegexUnion (Str2Reg "--") (Str2Reg "."))) (RegexConcat (RegexPlus (RegexStar (Str2Reg "///"))) (RegexConcat (RegexStar (RegexStar (Str2Reg "::"))) (RegexConcat (RegexUnion (RegexStar (Str2Reg ";;;")) (RegexStar (Str2Reg "<<<"))) (RegexConcat (RegexPlus (RegexUnion (Str2Reg "==") (Str2Reg ">"))) (RegexConcat (RegexUnion (RegexPlus (Str2Reg "?")) (RegexPlus (Str2Reg "@@"))) (RegexConcat (RegexStar (RegexPlus (Str2Reg "[["))) (RegexConcat (RegexPlus (RegexStar (Str2Reg "\\"))) (RegexConcat (RegexStar (RegexPlus (Str2Reg "]]"))) (RegexConcat (RegexPlus (RegexStar (Str2Reg "^^^"))) (RegexConcat (RegexUnion (RegexUnion (Str2Reg "___") (Str2Reg "``")) (RegexUnion (Str2Reg "{{{") (Str2Reg "|"))) (RegexConcat (RegexUnion (RegexUnion (Str2Reg "}}") (Str2Reg "~")) (RegexUnion (Str2Reg "000") (Str2Reg "1"))) (RegexConcat (RegexStar (RegexStar (Str2Reg "2"))) (RegexConcat (RegexPlus (RegexUnion (Str2Reg "33") (Str2Reg "444"))) (RegexConcat (RegexUnion (RegexPlus (Str2Reg "555")) (RegexPlus (Str2Reg "6"))) (RegexConcat (RegexPlus (RegexPlus (Str2Reg "7"))) (RegexConcat (RegexStar (RegexPlus (Str2Reg "888"))) (RegexConcat (RegexUnion (RegexPlus (Str2Reg "9")) (RegexPlus (Str2Reg "aa"))) (RegexConcat (RegexUnion (RegexPlus (Str2Reg "bb")) (RegexPlus (Str2Reg "c"))) (RegexConcat (RegexUnion (RegexUnion (Str2Reg "dd") (Str2Reg "e")) (RegexUnion (Str2Reg "ff") (Str2Reg "g"))) (RegexConcat (RegexPlus (RegexPlus (Str2Reg "hh"))) (RegexConcat (RegexPlus (RegexStar (Str2Reg "ii"))) (RegexConcat (RegexPlus (RegexPlus (Str2Reg "jj"))) (RegexConcat (RegexStar (RegexPlus (Str2Reg "k"))) (RegexConcat (RegexPlus (RegexStar (Str2Reg "ll"))) (RegexConcat (RegexUnion (RegexPlus (Str2Reg "mmm")) (RegexPlus (Str2Reg "n"))) (RegexConcat (RegexPlus (RegexStar (Str2Reg "ooo"))) (RegexConcat (RegexStar (RegexStar (Str2Reg "p"))) (RegexConcat (RegexUnion (RegexPlus (Str2Reg "qq")) (RegexPlus (Str2Reg "rrr"))) (RegexConcat (RegexPlus (RegexStar (Str2Reg "s"))) (RegexConcat (RegexStar (RegexStar (Str2Reg "t"))) (RegexConcat (RegexStar (RegexPlus (Str2Reg "u"))) (RegexConcat (RegexUnion (RegexUnion (Str2Reg "v") (Str2Reg "www")) (RegexUnion (Str2Reg "x") (Str2Reg "yyy"))) (RegexConcat (RegexPlus (RegexPlus (Str2Reg "zz"))) (RegexConcat (RegexUnion (RegexPlus (Str2Reg "A")) (RegexPlus (Str2Reg "BBB"))) (RegexConcat (RegexPlus (RegexStar (Str2Reg "CCC"))) (RegexConcat (RegexPlus (RegexPlus (Str2Reg "DDD"))) (RegexConcat (RegexStar (RegexUnion (Str2Reg "E") (Str2Reg "F"))) (RegexConcat (RegexPlus (RegexStar (Str2Reg "G"))) (RegexConcat (RegexPlus (RegexUnion (Str2Reg "HH") (Str2Reg "I"))) (RegexConcat (RegexUnion (RegexStar (Str2Reg "J")) (RegexStar (Str2Reg "K"))) (RegexConcat (RegexUnion (RegexUnion (Str2Reg "L") (Str2Reg "MMM")) (RegexUnion (Str2Reg "NN") (Str2Reg "OO"))) (RegexConcat (RegexPlus (RegexUnion (Str2Reg "P") (Str2Reg "QQQ"))) (RegexConcat (RegexStar (RegexPlus (Str2Reg "R"))) (RegexConcat (RegexUnion (RegexPlus (Str2Reg "SSS")) (RegexPlus (Str2Reg "TTT"))) (RegexConcat (RegexStar (RegexPlus (Str2Reg "UU"))) (RegexConcat (RegexUnion (RegexStar (Str2Reg "V")) (RegexStar (Str2Reg "W"))) (RegexConcat (RegexUnion (RegexPlus (Str2Reg "XXX")) (RegexPlus (Str2Reg "YY"))) (RegexConcat (RegexUnion (RegexUnion (Str2Reg "Z") (Str2Reg "!!")) (RegexUnion (Str2Reg "\"\"\"") (Str2Reg "#"))) (RegexConcat (RegexPlus (RegexUnion (Str2Reg "$$") (Str2Reg "%%"))) (RegexConcat (RegexUnion (RegexStar (Str2Reg "&&")) (RegexStar (Str2Reg "''"))) (RegexConcat (RegexUnion (RegexStar (Str2Reg "((")) (RegexStar (Str2Reg ")"))) (RegexConcat (RegexUnion (RegexUnion (Str2Reg "*") (Str2Reg "+")) (RegexUnion (Str2Reg ",,,") (Str2Reg "-"))) (RegexConcat (RegexUnion (RegexStar (Str2Reg "...")) (RegexStar (Str2Reg "///"))) (RegexConcat (RegexPlus (RegexPlus (Str2Reg ":"))) (RegexConcat (RegexPlus (RegexPlus (Str2Reg ";;;"))) (RegexConcat (RegexPlus (RegexPlus (Str2Reg "<<"))) (RegexConcat (RegexStar (RegexUnion (Str2Reg "=") (Str2Reg ">>>"))) (RegexConcat (RegexUnion (RegexUnion (Str2Reg "???") (Str2Reg "@")) (RegexUnion (Str2Reg "[[") (Str2Reg "\\\\"))) (RegexConcat (RegexUnion (RegexStar (Str2Reg "]]]")) (RegexStar (Str2Reg "^^"))) (RegexConcat (RegexStar (RegexStar (Str2Reg "__"))) (RegexConcat (RegexUnion (RegexUnion (Str2Reg "```") (Str2Reg "{{{")) (RegexUnion (Str2Reg "|||") (Str2Reg "}}"))) (RegexConcat (RegexStar (RegexUnion (Str2Reg "~") (Str2Reg "00"))) (RegexConcat (RegexStar (RegexUnion (Str2Reg "11") (Str2Reg "2"))) (RegexConcat (RegexStar (RegexPlus (Str2Reg "3"))) (RegexConcat (RegexStar (RegexPlus (Str2Reg "444"))) (RegexConcat (RegexPlus (RegexUnion (Str2Reg "55") (Str2Reg "66"))) (RegexConcat (RegexStar (RegexStar (Str2Reg "777"))) (RegexConcat (RegexPlus (RegexStar (Str2Reg "888"))) (RegexConcat (RegexStar (RegexPlus (Str2Reg "9"))) (RegexConcat (RegexPlus (RegexPlus (Str2Reg "aaa"))) (RegexConcat (RegexPlus (RegexUnion (Str2Reg "b") (Str2Reg "ccc"))) (RegexConcat (RegexStar (RegexStar (Str2Reg "dd"))) (RegexConcat (RegexStar (RegexStar (Str2Reg "ee"))) (RegexConcat (RegexPlus (RegexStar (Str2Reg "fff"))) (RegexConcat (RegexPlus (RegexPlus (Str2Reg "g"))) (RegexConcat (RegexStar (RegexPlus (Str2Reg "hh"))) (RegexConcat (RegexUnion (RegexUnion (Str2Reg "ii") (Str2Reg "j")) (RegexUnion (Str2Reg "k") (Str2Reg "lll"))) (RegexConcat (RegexUnion (RegexPlus (Str2Reg "mm")) (RegexPlus (Str2Reg "nn"))) (RegexConcat (RegexUnion (RegexPlus (Str2Reg "oo")) (RegexPlus (Str2Reg "pp"))) (RegexConcat (RegexUnion (RegexStar (Str2Reg "qq")) (RegexStar (Str2Reg "rrr"))) (RegexConcat (RegexUnion (RegexStar (Str2Reg "ss")) (RegexStar (Str2Reg "tt"))) (RegexConcat (RegexStar (RegexStar (Str2Reg "uu"))) (RegexConcat (RegexUnion (RegexUnion (Str2Reg "v") (Str2Reg "ww")) (RegexUnion (Str2Reg "xxx") (Str2Reg "y"))) (RegexConcat (RegexStar (RegexUnion (Str2Reg "zz") (Str2Reg "A"))) (RegexConcat (RegexUnion (RegexPlus (Str2Reg "B")) (RegexPlus (Str2Reg "CC"))) (RegexConcat (RegexStar (RegexPlus (Str2Reg "DD"))) (RegexConcat (RegexStar (RegexPlus (Str2Reg "EEE"))) (RegexConcat (RegexStar (RegexUnion (Str2Reg "F") (Str2Reg "GGG"))) (RegexConcat (RegexUnion (RegexStar (Str2Reg "HHH")) (RegexStar (Str2Reg "I"))) (RegexConcat (RegexStar (RegexStar (Str2Reg "J"))) (RegexConcat (RegexStar (RegexUnion (Str2Reg "KK") (Str2Reg "L"))) (RegexConcat (RegexUnion (RegexPlus (Str2Reg "MM")) (RegexPlus (Str2Reg "N"))) (RegexConcat (RegexPlus (RegexPlus (Str2Reg "O"))) (RegexConcat (RegexPlus (RegexStar (Str2Reg "PP"))) (RegexConcat (RegexPlus (RegexPlus (Str2Reg "Q"))) (RegexConcat (RegexStar (RegexUnion (Str2Reg "RR") (Str2Reg "S"))) (RegexConcat (RegexUnion (RegexPlus (Str2Reg "T")) (RegexPlus (Str2Reg "UUU"))) (RegexConcat (RegexPlus (RegexStar (Str2Reg "V"))) (RegexConcat (RegexPlus (RegexStar (Str2Reg "WWW"))) (RegexConcat (RegexStar (RegexPlus (Str2Reg "X"))) (RegexConcat (RegexPlus (RegexPlus (Str2Reg "YYY"))) (RegexConcat (RegexUnion (RegexPlus (Str2Reg "Z")) (RegexPlus (Str2Reg "!"))) (RegexConcat (RegexStar (RegexPlus (Str2Reg "\"\""))) (RegexConcat (RegexPlus (RegexPlus (Str2Reg "###"))) (RegexConcat (RegexUnion (RegexUnion (Str2Reg "$$$") (Str2Reg "%%")) (RegexUnion (Str2Reg "&&") (Str2Reg "''"))) (RegexConcat (RegexPlus (RegexStar (Str2Reg "("))) (RegexConcat (RegexUnion (RegexUnion (Str2Reg ")))") (Str2Reg "***")) (RegexUnion (Str2Reg "+") (Str2Reg ","))) (RegexPlus (RegexPlus (Str2Reg "--"))))))))))))))))))))))))))))))))))))))))))))))))))))))))))))))))))))))))))))))))))))))))))))))))))))))))))))))))))))))))))))))))))))))))))))))))))))))))))))))))))))))))))))))))))))))))))))))))))))))))))))))))
(check-sat)